c CNF file corresponding to a (partial) station packing problem.
p cnf 5134 229
1 2 3 4 5 6 7 8 9 10 11 12 13 14 0
-1 -2 0
-1 -3 0
-1 -4 0
-1 -5 0
-1 -6 0
-1 -7 0
-1 -8 0
-1 -9 0
-1 -10 0
-1 -11 0
-1 -12 0
-1 -13 0
-1 -14 0
-2 -3 0
-2 -4 0
-2 -5 0
-2 -6 0
-2 -7 0
-2 -8 0
-2 -9 0
-2 -10 0
-2 -11 0
-2 -12 0
-2 -13 0
-2 -14 0
-3 -4 0
-3 -5 0
-3 -6 0
-3 -7 0
-3 -8 0
-3 -9 0
-3 -10 0
-3 -11 0
-3 -12 0
-3 -13 0
-3 -14 0
-4 -5 0
-4 -6 0
-4 -7 0
-4 -8 0
-4 -9 0
-4 -10 0
-4 -11 0
-4 -12 0
-4 -13 0
-4 -14 0
-5 -6 0
-5 -7 0
-5 -8 0
-5 -9 0
-5 -10 0
-5 -11 0
-5 -12 0
-5 -13 0
-5 -14 0
-6 -7 0
-6 -8 0
-6 -9 0
-6 -10 0
-6 -11 0
-6 -12 0
-6 -13 0
-6 -14 0
-7 -8 0
-7 -9 0
-7 -10 0
-7 -11 0
-7 -12 0
-7 -13 0
-7 -14 0
-8 -9 0
-8 -10 0
-8 -11 0
-8 -12 0
-8 -13 0
-8 -14 0
-9 -10 0
-9 -11 0
-9 -12 0
-9 -13 0
-9 -14 0
-10 -11 0
-10 -12 0
-10 -13 0
-10 -14 0
-11 -12 0
-11 -13 0
-11 -14 0
-12 -13 0
-12 -14 0
-13 -14 0
5118 5119 5120 5121 5122 5123 5124 5125 5126 5127 5128 5129 5130 5131 5132 5133 5134 0
-5118 -5119 0
-5118 -5120 0
-5118 -5121 0
-5118 -5122 0
-5118 -5123 0
-5118 -5124 0
-5118 -5125 0
-5118 -5126 0
-5118 -5127 0
-5118 -5128 0
-5118 -5129 0
-5118 -5130 0
-5118 -5131 0
-5118 -5132 0
-5118 -5133 0
-5118 -5134 0
-5119 -5120 0
-5119 -5121 0
-5119 -5122 0
-5119 -5123 0
-5119 -5124 0
-5119 -5125 0
-5119 -5126 0
-5119 -5127 0
-5119 -5128 0
-5119 -5129 0
-5119 -5130 0
-5119 -5131 0
-5119 -5132 0
-5119 -5133 0
-5119 -5134 0
-5120 -5121 0
-5120 -5122 0
-5120 -5123 0
-5120 -5124 0
-5120 -5125 0
-5120 -5126 0
-5120 -5127 0
-5120 -5128 0
-5120 -5129 0
-5120 -5130 0
-5120 -5131 0
-5120 -5132 0
-5120 -5133 0
-5120 -5134 0
-5121 -5122 0
-5121 -5123 0
-5121 -5124 0
-5121 -5125 0
-5121 -5126 0
-5121 -5127 0
-5121 -5128 0
-5121 -5129 0
-5121 -5130 0
-5121 -5131 0
-5121 -5132 0
-5121 -5133 0
-5121 -5134 0
-5122 -5123 0
-5122 -5124 0
-5122 -5125 0
-5122 -5126 0
-5122 -5127 0
-5122 -5128 0
-5122 -5129 0
-5122 -5130 0
-5122 -5131 0
-5122 -5132 0
-5122 -5133 0
-5122 -5134 0
-5123 -5124 0
-5123 -5125 0
-5123 -5126 0
-5123 -5127 0
-5123 -5128 0
-5123 -5129 0
-5123 -5130 0
-5123 -5131 0
-5123 -5132 0
-5123 -5133 0
-5123 -5134 0
-5124 -5125 0
-5124 -5126 0
-5124 -5127 0
-5124 -5128 0
-5124 -5129 0
-5124 -5130 0
-5124 -5131 0
-5124 -5132 0
-5124 -5133 0
-5124 -5134 0
-5125 -5126 0
-5125 -5127 0
-5125 -5128 0
-5125 -5129 0
-5125 -5130 0
-5125 -5131 0
-5125 -5132 0
-5125 -5133 0
-5125 -5134 0
-5126 -5127 0
-5126 -5128 0
-5126 -5129 0
-5126 -5130 0
-5126 -5131 0
-5126 -5132 0
-5126 -5133 0
-5126 -5134 0
-5127 -5128 0
-5127 -5129 0
-5127 -5130 0
-5127 -5131 0
-5127 -5132 0
-5127 -5133 0
-5127 -5134 0
-5128 -5129 0
-5128 -5130 0
-5128 -5131 0
-5128 -5132 0
-5128 -5133 0
-5128 -5134 0
-5129 -5130 0
-5129 -5131 0
-5129 -5132 0
-5129 -5133 0
-5129 -5134 0
-5130 -5131 0
-5130 -5132 0
-5130 -5133 0
-5130 -5134 0
-5131 -5132 0
-5131 -5133 0
-5131 -5134 0
-5132 -5133 0
-5132 -5134 0
-5133 -5134 0
